	Costo	Iter.	Tiempo
1	538,61	312	96,219
2	866,07	117	64,109
3	855,34	228	300,186
4	1095	95	301,405
5	1425,85	51	302,843
6	560,96	307	100,608
7	940,18	52	303,282
8	916,49	47	302,39
9	1276,36	3	318,687
10	1572,13	2	500,344
11	1252,38	113	254,78
12	859,66	168	169,547
13	1662,62	122	172,172
14	893,22	151	102,749
